solution status: optimal solution found
objective value:                     110079.840193906
d11(0,0)                                            1 	(obj:0)
d11(1,1)                                            1 	(obj:0)
d11(1,2)                                            1 	(obj:0)
d11(2,4)                                            1 	(obj:0)
d11(2,5)                                            1 	(obj:0)
d11(2,7)                                            1 	(obj:0)
d11(2,8)                                            1 	(obj:0)
d11(2,10)                                           1 	(obj:0)
d11(2,11)                                           1 	(obj:0)
d11(3,13)                                           1 	(obj:0)
d11(3,14)                                           1 	(obj:0)
d11(3,16)                                           1 	(obj:0)
d11(3,17)                                           1 	(obj:0)
d11(3,19)                                           1 	(obj:0)
d11(3,20)                                           1 	(obj:0)
d11(3,22)                                           1 	(obj:0)
d11(3,23)                                           1 	(obj:0)
d11(3,25)                                           1 	(obj:0)
d11(3,26)                                           1 	(obj:0)
d11(3,28)                                           1 	(obj:0)
d11(3,29)                                           1 	(obj:0)
d11(3,31)                                           1 	(obj:0)
d11(3,32)                                           1 	(obj:0)
d11(3,34)                                           1 	(obj:0)
d11(3,35)                                           1 	(obj:0)
d11(3,37)                                           1 	(obj:0)
d11(3,38)                                           1 	(obj:0)
d12(1,3)                                            1 	(obj:0)
d12(2,6)                                            1 	(obj:0)
d12(2,9)                                            1 	(obj:0)
d12(2,12)                                           1 	(obj:0)
d12(3,15)                                           1 	(obj:0)
d12(3,18)                                           1 	(obj:0)
d12(3,21)                                           1 	(obj:0)
d12(3,24)                                           1 	(obj:0)
d12(3,27)                                           1 	(obj:0)
d12(3,30)                                           1 	(obj:0)
d12(3,33)                                           1 	(obj:0)
d12(3,36)                                           1 	(obj:0)
d12(3,39)                                           1 	(obj:0)
d21(2,4)                                            1 	(obj:0)
d21(3,13)                                           1 	(obj:0)
d21(3,14)                                           1 	(obj:0)
d21(3,15)                                           1 	(obj:0)
d21(3,16)                                           1 	(obj:0)
d21(3,17)                                           1 	(obj:0)
d21(3,19)                                           1 	(obj:0)
d21(3,22)                                           1 	(obj:0)
d21(3,23)                                           1 	(obj:0)
d21(3,25)                                           1 	(obj:0)
d21(3,28)                                           1 	(obj:0)
d21(3,31)                                           1 	(obj:0)
y2(3,24)                             551.307843363262 	(obj:0)
y2(3,27)                             551.307843363262 	(obj:0)
y2(3,30)                             551.307843363262 	(obj:0)
y2(3,33)                             551.307843363262 	(obj:0)
y2(3,36)                             551.307843363261 	(obj:0)
y2(3,39)                             551.307843363261 	(obj:0)
STE(1,1)                             4541.61699833336 	(obj:0)
STE(0,0)                                         6300 	(obj:0)
STE(1,2)                             5538.38300166678 	(obj:0)
STE(1,3)                             6479.31049278217 	(obj:0)
STE(2,4)                             2783.23399666671 	(obj:0)
STE(2,5)                                         3780 	(obj:0)
STE(2,6)                             4720.92749111552 	(obj:0)
STE(2,7)                             3780.00000000013 	(obj:0)
STE(2,8)                             4776.76600333342 	(obj:0)
STE(2,9)                             5717.69349444894 	(obj:0)
STE(2,10)                            4720.92749111551 	(obj:0)
STE(2,11)                            5717.69349444881 	(obj:0)
STE(2,12)                            6658.62098556433 	(obj:0)
STE(3,13)                            845.540502217942 	(obj:0)
STE(3,14)                            1842.30650555117 	(obj:0)
STE(3,15)                            2802.97644786181 	(obj:0)
STE(3,16)                            1842.30650555119 	(obj:0)
STE(3,17)                            2839.07250888448 	(obj:0)
STE(3,18)                             3799.7424511951 	(obj:0)
STE(3,19)                            2783.23399666671 	(obj:0)
STE(3,20)                                        3780 	(obj:0)
STE(3,21)                            4740.66994231062 	(obj:0)
STE(3,22)                            1842.30650555129 	(obj:0)
STE(3,23)                            2839.07250888461 	(obj:0)
STE(3,24)                            3799.74245119523 	(obj:0)
STE(3,25)                            2839.07250888461 	(obj:0)
STE(3,26)                            3835.83851221791 	(obj:0)
STE(3,27)                            4796.50845452852 	(obj:0)
STE(3,28)                            3780.00000000013 	(obj:0)
STE(3,29)                            4776.76600333342 	(obj:0)
STE(3,30)                            5737.43594564404 	(obj:0)
STE(3,31)                             2783.2339966667 	(obj:0)
STE(3,32)                            3779.99999999999 	(obj:0)
STE(3,33)                            4740.66994231061 	(obj:0)
STE(3,34)                                        3780 	(obj:0)
STE(3,35)                            4776.76600333329 	(obj:0)
STE(3,36)                            5737.43594564391 	(obj:0)
STE(3,37)                            4720.92749111552 	(obj:0)
STE(3,38)                            5717.69349444881 	(obj:0)
STE(3,39)                            6678.36343675943 	(obj:0)
y1(3,23)                              393.23474200397 	(obj:0)
y1(3,25)                             1290.32414500393 	(obj:0)
y1(3,26)                             393.234742003956 	(obj:0)
y1(3,28)                             1290.32414500393 	(obj:0)
y1(3,29)                             393.234742003965 	(obj:0)
y1(3,31)                             1290.32414500393 	(obj:0)
y1(3,32)                             393.234742003965 	(obj:0)
y1(3,34)                             1290.32414500393 	(obj:0)
y1(3,35)                             393.234742003965 	(obj:0)
y1(3,37)                             1290.32414500393 	(obj:0)
y1(3,38)                             393.234742003965 	(obj:0)
BG(3)                                3779.10994082032 	(obj:10)
AVE(1)                               3199.95851117552 	(obj:0)
WB(2)                                3265.15049132519 	(obj:0)
AVE(2)                               3265.15049132519 	(obj:0)
WB(3)                                3291.35535332476 	(obj:0)
AVE(3)                               3291.35535332476 	(obj:0)
WG(1)                                3199.95851117552 	(obj:10)
BG(1)                                414.478528110152 	(obj:10)
BG(2)                                3614.43703928569 	(obj:10)
y1(1,1)                              1128.94470149997 	(obj:0)
y1(1,2)                              231.855298499896 	(obj:0)
y1(2,4)                              1128.94470149999 	(obj:0)
y1(2,5)                              231.855298500027 	(obj:0)
y1(2,7)                              1128.94470149999 	(obj:0)
y1(2,8)                              231.855298500027 	(obj:0)
y1(2,10)                                 1128.9447015 	(obj:0)
y1(2,11)                             231.855298500027 	(obj:0)
y1(3,13)                             1290.32414500389 	(obj:0)
y1(3,14)                             393.234742003986 	(obj:0)
y1(3,16)                             1290.32414500393 	(obj:0)
y1(3,17)                             393.234742003965 	(obj:0)
y1(3,19)                             1290.32414500393 	(obj:0)
y1(3,20)                             393.234742003965 	(obj:0)
y1(3,22)                             1290.32414500396 	(obj:0)
y2(1,3)                              719.274202928601 	(obj:0)
y2(2,6)                              719.274202928585 	(obj:0)
y2(2,9)                              719.274202928585 	(obj:0)
y2(2,12)                             719.274202928585 	(obj:0)
y2(3,15)                             551.307843363262 	(obj:0)
y2(3,18)                             551.307843363261 	(obj:0)
y2(3,21)                             551.307843363262 	(obj:0)
